language Essence 1.3

letting class be
        function(1 --> 9, 2 --> 5, 3 --> 5, 4 --> 1, 5 --> 9, 6 --> 6, 7 --> 7, 8 --> 4, 9 --> 2, 10 --> 9, 11 --> 9,
                 12 --> 6, 13 --> 5, 14 --> 6, 15 --> 1, 16 --> 8, 17 --> 9, 18 --> 2, 19 --> 3, 20 --> 4, 21 --> 6,
                 22 --> 5, 23 --> 8)
letting deck_length be 26
letting deck_width be 72
letting length be
        function(1 --> 4, 2 --> 26, 3 --> 16, 4 --> 5, 5 --> 25, 6 --> 20, 7 --> 5, 8 --> 8, 9 --> 16, 10 --> 11,
                 11 --> 8, 12 --> 25, 13 --> 15, 14 --> 5, 15 --> 23, 16 --> 20, 17 --> 23, 18 --> 16, 19 --> 9,
                 20 --> 9, 21 --> 14, 22 --> 7, 23 --> 4)
letting n_classes be 9
letting n_containers be 23
letting separation be function({2, 3} --> 25)
letting width be
        function(1 --> 2, 2 --> 26, 3 --> 1, 4 --> 1, 5 --> 1, 6 --> 1, 7 --> 1, 8 --> 1, 9 --> 1, 10 --> 1, 11 --> 1,
                 12 --> 4, 13 --> 1, 14 --> 1, 15 --> 1, 16 --> 1, 17 --> 11, 18 --> 2, 19 --> 1, 20 --> 1, 21 --> 1,
                 22 --> 1, 23 --> 1)
